* #variable= 89 #constraint= 28
* #binary= 89 #integer= 0
* NOTE: using following variable name mapping
* x1..1 : C101
* x2..2 : C102
* x3..3 : C103
* x4..4 : C104
* x5..5 : C105
* x6..6 : C106
* x7..7 : C107
* x8..8 : C108
* x9..9 : C109
* x10..10 : C110
* x11..11 : C111
* x12..12 : C112
* x13..13 : C113
* x14..14 : C114
* x15..15 : C115
* x16..16 : C116
* x17..17 : C117
* x18..18 : C118
* x19..19 : C119
* x20..20 : C120
* x21..21 : C121
* x22..22 : C122
* x23..23 : C123
* x24..24 : C124
* x25..25 : C125
* x26..26 : C126
* x27..27 : C127
* x28..28 : C128
* x29..29 : C129
* x30..30 : C130
* x31..31 : C131
* x32..32 : C132
* x33..33 : C133
* x34..34 : C134
* x35..35 : C135
* x36..36 : C136
* x37..37 : C137
* x38..38 : C138
* x39..39 : C139
* x40..40 : C140
* x41..41 : C141
* x42..42 : C142
* x43..43 : C143
* x44..44 : C144
* x45..45 : C145
* x46..46 : C146
* x47..47 : C147
* x48..48 : C148
* x49..49 : C149
* x50..50 : C150
* x51..51 : C151
* x52..52 : C152
* x53..53 : C153
* x54..54 : C154
* x55..55 : C155
* x56..56 : C156
* x57..57 : C157
* x58..58 : C158
* x59..59 : C159
* x60..60 : C160
* x61..61 : C161
* x62..62 : C162
* x63..63 : C163
* x64..64 : C164
* x65..65 : C165
* x66..66 : C166
* x67..67 : C167
* x68..68 : C168
* x69..69 : C169
* x70..70 : C170
* x71..71 : C171
* x72..72 : C172
* x73..73 : C173
* x74..74 : C174
* x75..75 : C175
* x76..76 : C176
* x77..77 : C177
* x78..78 : C178
* x79..79 : C179
* x80..80 : C180
* x81..81 : C181
* x82..82 : C182
* x83..83 : C183
* x84..84 : C184
* x85..85 : C185
* x86..86 : C186
* x87..87 : C187
* x88..88 : C188
* x89..89 : C189
*   Obj. scale       : 1
*   Obj. offset      : 0
* NOTE: new objective = (old objective - offset) * scale
min: +7 x1 +10 x2 +179 x3 +186 x4 +179 x5 +6 x8 +164 x11 +164 x12 +170 x13 +164 x14 +346 x15 +346 x16 +248 x17 +253 x18 +248 x19 +346 x20 +346 x21 +346 x22 +346 x23 +160 x24 +161 x25 +160 x26 +160 x27 +161 x28 +160 x29 +160 x30 +278 x31 +278 x32 +278 x33 +86 x34 +86 x35 +86 x36 +86 x37 +86 x38 +86 x39 +188 x40 +188 x41 +188 x42 +85 x43 +85 x44 +85 x45 +85 x46 +85 x47 +78 x48 +78 x49 +78 x50 +78 x51 +78 x52 +78 x53 +78 x54 +78 x55 +78 x56 +171 x57 +171 x58 +171 x59 +171 x60 +163 x61 +163 x62 +163 x63 +69 x64 +69 x65 +183 x66 +183 x67 +183 x68 +183 x69 +49 x70 +183 x71 +258 x72 +517 x73 +250 x74 +500 x75 +250 x76 +500 x77 +159 x78 +318 x79 +159 x80 +318 x81 +159 x82 +318 x83 +159 x84 +318 x85 +114 x86 +228 x87 +159 x88 +318 x89 ;
-1 x3 -1 x4 -1 x5 >= -1 ;
-1 x6 -1 x7 -1 x8 -1 x9 -1 x10 >= -1 ;
-1 x11 -1 x12 -1 x13 -1 x14 >= -1 ;
-1 x15 -1 x16 >= -1 ;
-1 x17 -1 x18 -1 x19 >= -1 ;
-1 x20 -1 x21 -1 x22 -1 x23 >= -1 ;
-1 x24 -1 x25 -1 x26 -1 x27 -1 x28 -1 x29 -1 x30 >= -1 ;
-1 x31 -1 x32 -1 x33 >= -1 ;
-1 x34 -1 x35 -1 x36 -1 x37 -1 x38 >= -1 ;
-1 x40 -1 x41 -1 x42 >= -1 ;
-1 x43 -1 x44 -1 x45 -1 x46 -1 x47 >= -1 ;
-1 x48 -1 x49 -1 x50 -1 x51 >= -1 ;
-1 x52 -1 x53 -1 x54 -1 x55 -1 x56 >= -1 ;
-1 x57 -1 x58 -1 x59 -1 x60 >= -1 ;
-1 x61 -1 x62 -1 x63 >= -1 ;
-1 x64 -1 x65 >= -1 ;
-1 x66 -1 x67 -1 x68 -1 x69 -1 x71 >= -1 ;
+450 x6 +435 x11 +435 x20 +350 x31 +230 x66 +200 x72 +400 x73 >= 190 ;
-525 x1 -500 x2 -475 x3 -475 x4 -475 x5 -435 x13 -435 x14 -435 x16 -435 x17 -435 x18 -435 x19 -425 x27 -425 x28 -425 x29 -330 x36 -330 x37 -330 x38 -330 x39 -330 x41 -330 x42 -325 x45 -325 x46 -325 x47 -300 x49 -300 x50 -300 x54 -300 x55 -300 x56 -300 x59 -300 x60 -285 x61 -285 x62 -265 x64 -265 x65 -230 x68 -230 x69 -190 x70 -200 x78 -400 x79 -200 x80 -400 x81 -200 x82 -400 x83 -200 x84 -400 x85 -200 x86 -400 x87 >= -2700 ;
+525 x1 +500 x2 +475 x3 +475 x4 +475 x5 +435 x13 +435 x14 +435 x16 +435 x17 +435 x18 +435 x19 +425 x27 +425 x28 +425 x29 +330 x36 +330 x37 +330 x38 +330 x39 +330 x41 +330 x42 +325 x45 +325 x46 +325 x47 +300 x49 +300 x50 +300 x54 +300 x55 +300 x56 +300 x59 +300 x60 +285 x61 +285 x62 +265 x64 +265 x65 +230 x68 +230 x69 +190 x70 +200 x78 +400 x79 +200 x80 +400 x81 +200 x82 +400 x83 +200 x84 +400 x85 +200 x86 +400 x87 >= 2600 ;
+435 x14 +400 x22 +350 x33 +330 x38 +330 x42 +325 x47 +300 x50 +300 x56 +300 x60 +200 x86 +400 x87 >= 630 ;
+525 x1 +500 x2 +475 x4 +190 x5 +450 x8 +165 x9 +435 x18 +300 x19 +400 x25 +115 x26 +330 x34 +330 x39 +330 x40 +325 x43 +300 x48 +300 x52 +300 x57 +285 x62 +265 x65 +190 x70 +200 x82 +400 x83 >= 900 ;
+525 x1 +500 x2 +475 x4 +190 x5 +450 x8 +165 x9 +435 x13 +435 x18 +300 x19 +400 x21 +400 x25 +115 x26 +425 x28 +140 x29 +330 x34 +330 x37 +330 x39 +330 x40 +325 x43 +325 x46 +300 x48 +300 x52 +300 x55 +300 x57 +300 x59 +285 x62 +265 x65 +230 x69 +190 x70 +200 x82 +400 x83 +200 x84 +400 x85 >= 1656 ;
+475 x3 +285 x5 +450 x7 +285 x9 +150 x10 +435 x12 +435 x15 +435 x17 +135 x19 +100 x23 +400 x24 +285 x26 +100 x30 +350 x32 +330 x36 +330 x41 +325 x45 +300 x49 +300 x54 +285 x61 +265 x64 +230 x67 +200 x78 +400 x79 >= 335 ;
+475 x3 +285 x5 +450 x7 +285 x9 +150 x10 +435 x12 +435 x15 +435 x16 +435 x17 +135 x19 +100 x23 +400 x24 +285 x26 +425 x27 +285 x29 +100 x30 +350 x32 +330 x36 +330 x41 +325 x45 +300 x49 +300 x54 +285 x61 +265 x64 +230 x67 +230 x68 +200 x78 +400 x79 +200 x80 +400 x81 >= 1026 ;
+300 x30 +330 x35 +325 x44 +300 x53 +300 x58 +200 x74 +400 x75 >= 150 ;
+300 x23 +300 x30 +330 x35 +325 x44 +300 x53 +300 x58 +200 x74 +400 x75 +200 x76 +400 x77 >= 500 ;
+300 x51 +285 x63 +200 x88 +400 x89 >= 270 ;
